Reading model...
...model read.
creating competitive generators file...
...competitive generators recorded.
Loading data...
.. real-time data read.
Compiling instance...
...instance created.
Creating Offer Mitigation (model will solve as dispatch if TRUE)...
NOTE: storage offers will not be mitigated
...storage offer mitigation file created
Converting model to MPEC...
...converted
NOTE: initial MIP solve with only storage competitive to get feasible solution
Solving...

Welcome to IBM(R) ILOG(R) CPLEX(R) Interactive Optimizer 12.9.0.0
  with Simplex, Mixed Integer & Barrier Optimizers
5725-A06 5725-A29 5724-Y48 5724-Y49 5724-Y54 5724-Y55 5655-Y21
Copyright IBM Corp. 1988, 2019.  All Rights Reserved.

Type 'help' for a list of available commands.
Type 'help' followed by a command name for more
information on commands.

CPLEX> Logfile 'cplex.log' closed.
Logfile 'C:\Users\llavin\Desktop\test826\logs\tmp4jfjntof.cplex.log' open.
CPLEX> New value for parallel optimization mode: -1
CPLEX> New value for mixed integer optimality gap tolerance: 0.05
CPLEX> New value for feasibility tolerance: 1e-09
CPLEX> New value for deterministic time limit in ticks: 100000
CPLEX> Problem 'C:\Users\llavin\Desktop\test826\logs\tmp1akemt_i.pyomo.lp' read.
Read time = 0.53 sec. (28.85 ticks)
CPLEX> Problem name         : C:\Users\llavin\Desktop\test826\logs\tmp1akemt_i.pyomo.lp
Objective sense      : Maximize
Variables            :  107783  [Nneg: 1,  Box: 44058,  Free: 8928,
                                 Binary: 54796]
Objective nonzeros   :   19010
Linear constraints   :  246903  [Less: 82866,  Greater: 118424,  Equal: 45613]
  Nonzeros           :  619901
  RHS nonzeros       :  136513

Variables            : Min LB: -5000.000        Max UB: 1000000.       
Objective nonzeros   : Min   : 0.1666667        Max   : 208.3333       
Linear constraints   :
  Nonzeros           : Min   : 0.1666667        Max   : 1000000.       
  RHS nonzeros       : Min   : 0.1666667        Max   : 1000000.       
CPLEX> CPXPARAM_Parallel                                -1
CPXPARAM_Simplex_Tolerances_Feasibility          1.0000000000000001e-09
CPXPARAM_DetTimeLimit                            100000
CPXPARAM_MIP_Tolerances_MIPGap                   0.050000000000000003
Tried aggregator 3 times.
MIP Presolve eliminated 173252 rows and 34236 columns.
MIP Presolve added 7727 rows and 0 columns.
MIP Presolve modified 53220 coefficients.
Aggregator did 26158 substitutions.
Reduced MIP has 55220 rows, 47005 columns, and 159635 nonzeros.
Reduced MIP has 18657 binaries, 0 generals, 0 SOSs, and 0 indicators.
Presolve time = 0.61 sec. (351.66 ticks)
Probing fixed 858 vars, tightened 16996 bounds.
Probing time = 0.42 sec. (20.04 ticks)
Tried aggregator 2 times.
MIP Presolve eliminated 1924 rows and 1741 columns.
MIP Presolve modified 7127 coefficients.
Aggregator did 80 substitutions.
Reduced MIP has 53216 rows, 45184 columns, and 148866 nonzeros.
Reduced MIP has 17794 binaries, 0 generals, 0 SOSs, and 0 indicators.
Presolve time = 0.31 sec. (275.92 ticks)
Probing fixed 5 vars, tightened 455 bounds.
Probing time = 0.58 sec. (22.36 ticks)
Clique table members: 88940.
MIP emphasis: balance optimality and feasibility.
MIP search method: dynamic search.
Parallel mode: opportunistic, using up to 32 threads.
Root relaxation solution time = 1.30 sec. (2259.28 ticks)

        Nodes                                         Cuts/
   Node  Left     Objective  IInf  Best Integer    Best Bound    ItCnt     Gap

      0     0        0.0000    33                      0.0000    11292         
*     0     0      integral     0        0.0000     Covers: 1    11293    0.00%
      0     0        cutoff              0.0000        0.0000    11293    0.00%
Elapsed time = 5.34 sec. (4533.02 ticks, tree = 0.01 MB, solutions = 1)

Root node processing (before b&c):
  Real time             =    5.38 sec. (4537.01 ticks)
Parallel b&c, 32 threads:
  Real time             =    0.00 sec. (0.00 ticks)
  Sync time (average)   =    0.00 sec.
  Wait time (average)   =    0.00 sec.
                          ------------
Total (root+branch&cut) =    5.38 sec. (4537.01 ticks)

Solution pool: 1 solution saved.

MIP - Integer optimal solution:  Objective =  5.8014393289e-10
Solution time =    5.39 sec.  Iterations = 11293  Nodes = 0
Deterministic time = 4537.32 ticks  (841.65 ticks/sec)

CPLEX> Incumbent solution written to file 'C:\Users\llavin\Desktop\test826\logs\tmp9nb2bxvd.cplex.sol'.
CPLEX> NOTE: no warmstart specified for MIP iteration, default behavior is true
NOTE: resolving with all competitive generators using storage-only solution to warmstart
Solving...

Welcome to IBM(R) ILOG(R) CPLEX(R) Interactive Optimizer 12.9.0.0
  with Simplex, Mixed Integer & Barrier Optimizers
5725-A06 5725-A29 5724-Y48 5724-Y49 5724-Y54 5724-Y55 5655-Y21
Copyright IBM Corp. 1988, 2019.  All Rights Reserved.

Type 'help' for a list of available commands.
Type 'help' followed by a command name for more
information on commands.

CPLEX> Logfile 'cplex.log' closed.
Logfile 'C:\Users\llavin\Desktop\test826\logs\tmp7vhen658.cplex.log' open.
CPLEX> New value for parallel optimization mode: -1
CPLEX> New value for mixed integer optimality gap tolerance: 0.05
CPLEX> New value for feasibility tolerance: 1e-09
CPLEX> New value for deterministic time limit in ticks: 100000
CPLEX> Problem 'C:\Users\llavin\Desktop\test826\logs\tmplm7vcrm_.pyomo.lp' read.
Read time = 0.52 sec. (28.90 ticks)
CPLEX> MIP start file 'C:\Users\llavin\Desktop\test826\logs\tmpduadtlzg.cplex.mst' read.
CPLEX> Problem name         : C:\Users\llavin\Desktop\test826\logs\tmplm7vcrm_.pyomo.lp
Objective sense      : Maximize
Variables            :  109223  [Nneg: 1,  Box: 45498,  Free: 8928,
                                 Binary: 54796]
Objective nonzeros   :   20402
Linear constraints   :  246903  [Less: 82866,  Greater: 118424,  Equal: 45613]
  Nonzeros           :  619901
  RHS nonzeros       :  136513

Variables            : Min LB: -5000.000        Max UB: 1000000.       
Objective nonzeros   : Min   : 0.1666667        Max   : 208.3333       
Linear constraints   :
  Nonzeros           : Min   : 0.1666667        Max   : 1000000.       
  RHS nonzeros       : Min   : 0.1666667        Max   : 1000000.       
CPLEX> CPXPARAM_Parallel                                -1
CPXPARAM_Simplex_Tolerances_Feasibility          1.0000000000000001e-09
CPXPARAM_DetTimeLimit                            100000
CPXPARAM_MIP_Tolerances_MIPGap                   0.050000000000000003
Warning:  No solution found from 1 MIP starts.
Retaining values of one MIP start for possible repair.
Tried aggregator 3 times.
MIP Presolve eliminated 173252 rows and 35676 columns.
MIP Presolve added 7727 rows and 0 columns.
MIP Presolve modified 53220 coefficients.
Aggregator did 26158 substitutions.
Reduced MIP has 55220 rows, 47005 columns, and 159635 nonzeros.
Reduced MIP has 18657 binaries, 0 generals, 0 SOSs, and 0 indicators.
Presolve time = 0.59 sec. (352.40 ticks)
Probing fixed 858 vars, tightened 16996 bounds.
Probing time = 0.42 sec. (20.04 ticks)
Tried aggregator 2 times.
MIP Presolve eliminated 1924 rows and 1741 columns.
MIP Presolve modified 7127 coefficients.
Aggregator did 80 substitutions.
Reduced MIP has 53216 rows, 45184 columns, and 148866 nonzeros.
Reduced MIP has 17794 binaries, 0 generals, 0 SOSs, and 0 indicators.
Presolve time = 0.31 sec. (275.94 ticks)
Probing fixed 5 vars, tightened 455 bounds.
Probing time = 0.58 sec. (22.36 ticks)
Clique table members: 88940.
MIP emphasis: balance optimality and feasibility.
MIP search method: dynamic search.
Parallel mode: opportunistic, using up to 32 threads.
Root relaxation solution time = 1.38 sec. (2383.70 ticks)

        Nodes                                         Cuts/
   Node  Left     Objective  IInf  Best Integer    Best Bound    ItCnt     Gap

      0     0     1291.3203    70                   1291.3203    12025         
      0     0     1291.3203     4                     Cuts: 9    12034         
      0     0     1291.3203     6                     Cuts: 3    12042         
      0     0     1291.3203     8                  MIRcuts: 1    12044         
*     0+    0                          786.4479     1291.3203            64.20%
Repair heuristic found nothing.
      0    38     1134.0895     4      786.4479   Impl Bds: 8    12207   64.20%
Elapsed time = 11.14 sec. (6386.37 ticks, tree = 0.02 MB, solutions = 1)
    185    80      941.1015     2      786.4479     1291.3203    12398   64.20%
*   342    73      integral     0      979.4358     1291.3203    12388   31.84%
    561   125     1014.1362     3      979.4358     1291.3203    12458   31.84%
   1008   243     1134.0895     3      979.4358     1291.3203    12813   31.84%
   1572   550     1134.0895     4      979.4358     1291.3203    13787   31.84%
   2074   747        cutoff           1134.0895     1291.3203    16017   13.86%
   2335   697        cutoff           1134.0895     1291.3203    16070   13.86%
*  2352+ 1493                         1134.0895     1291.3203            13.86%
   2790   787        cutoff           1134.0895     1291.3203    17592   13.86%
   3325   783     1256.6199     3     1134.0895     1291.3203    17452   13.86%
   3822   840     1168.7898     8     1134.0895     1291.3203    17666   13.86%
   5520  2179     1256.6199     6     1134.0895     1291.3203    22263   13.86%
Elapsed time = 30.02 sec. (9490.03 ticks, tree = 29.77 MB, solutions = 11)
   6990  2465        cutoff           1134.0895     1256.6199    26810   10.80%
   8175  2053        cutoff           1134.0895     1256.6199    31390   10.80%
   8184  1729     1168.7898     5     1134.0895     1256.6199    41519   10.80%
   8226    37     1291.3203     7     1134.0895     1256.6199    41792   10.80%
   8235    40     1291.3203    12     1134.0895     1256.6199    42021   10.80%

Cover cuts applied:  1
Flow cuts applied:  1
Mixed integer rounding cuts applied:  4
Zero-half cuts applied:  1
Gomory fractional cuts applied:  7

Root node processing (before b&c):
  Real time             =    8.06 sec. (6324.86 ticks)
Parallel b&c, 32 threads:
  Real time             =   43.73 sec. (13011.82 ticks)
  Sync time (average)   =    5.49 sec.
  Wait time (average)   =    0.24 sec.
                          ------------
Total (root+branch&cut) =   51.80 sec. (19336.68 ticks)

Solution pool: 11 solutions saved.

MIP - Integer optimal, tolerance (0.05/1e-06):  Objective =  1.1340894642e+03
Current MIP best bound =  1.1687898279e+03 (gap = 34.7004, 3.06%)
Solution time =   51.81 sec.  Iterations = 42201  Nodes = 8252 (56)
Deterministic time = 19337.00 ticks  (373.21 ticks/sec)

CPLEX> Incumbent solution written to file 'C:\Users\llavin\Desktop\test826\logs\tmpx24wnldh.cplex.sol'.
CPLEX> Exporting results... 
